<number of tasks>
20

<cycle time>
1000

<order strength>
0,516


<task times>
1 146
2 58
3 504
4 100
5 281
6 111
7 181
8 235
9 237
10 26
11 23
12 594
13 79
14 566
15 573
16 36
17 176
18 129
19 177
20 136

<precedence relations>
1,5
2,4
2,6
2,7
2,8
3,6
3,7
3,8
4,9
5,10
6,11
6,12
7,11
7,12
8,11
8,12
9,15
10,14
11,13
11,15
12,15
13,16
14,17
15,17
15,18
15,19
16,20
17,20

<end>
